--------------------------------------------------------------------------------(Solver execution current time: 0.0001804828643798828)
[INFO] Input Seed : 0
--------------------------------------------------------------------------------(Solver execution current time: 0.00021958351135253906)
[INFO] Input time limit : 30
--------------------------------------------------------------------------------(Solver execution current time: 0.000244140625)
[INFO] Command line arguments read with no errors.
--------------------------------------------------------------------------------(Solver execution current time: 0.028407812118530273)
[INFO] Input file read with no errors.
--------------------------------------------------------------------------------(Solver execution current time: 0.0285036563873291)
[INFO] Starting solver.
--------------------------------------------------------------------------------(Solver execution current time: 0.028542280197143555)
[INFO] Starting construction
--------------------------------------------------------------------------------(Solver execution current time: 4.9648051261901855)
[INFO] Finished construction
--------------------------------------------------------------------------------(Solver execution current time: 4.964913845062256)
[SOLUTION]
Basic Greedy Heuristic
Exec Time: 4.936258792877197
obj_value: -65; obj_routes: 26951.0
Route 1 : 65 8 132 75 35 17 16 42 83 24 38 91 105 102 50 84 56 18 11 85 25 92 78 109 123 117 
Route 2 : 6 73 36 103 12 79 47 3 70 53 54 121 61 51 26 114 128 27 43 120 7 5 110 57 74 93 118 94 72 60 127 124 
Route 3 : 1 49 29 46 45 30 68 96 113 13 37 116 4 20 80 28 112 71 10 63 2 97 9 130 34 76 101 95 77 31 69 104 40 87 107 39 98 106 
Route 4 : 48 55 115 122 44 19 62 129 86 111 21 88 32 99 41 108 
Route 5 : 14 58 81 22 125 89 33 100 
Route 6 : 52 67 134 119 23 90 
Route 7 : 15 82 
Route 8 : 66 133 
Route 9 : 
Route 10 : 
Route 11 : 
Route 12 : 
Route 13 : 
Route 14 : 
Route 15 : 
Route 16 : 
Route 17 : 
Route 18 : 
Route 19 : 
Route 20 : 
Route 21 : 

--------------------------------------------------------------------------------(Solver execution current time: 4.965896129608154)
[SOLUTION]
Solution after BasicGreedyLimitedHeterogeneousFleet
obj_value: -65; obj_routes: 26951.0
Route 1 : 65 8 132 75 35 17 16 42 83 24 38 91 105 102 50 84 56 18 11 85 25 92 78 109 123 117 
Route 2 : 6 73 36 103 12 79 47 3 70 53 54 121 61 51 26 114 128 27 43 120 7 5 110 57 74 93 118 94 72 60 127 124 
Route 3 : 1 49 29 46 45 30 68 96 113 13 37 116 4 20 80 28 112 71 10 63 2 97 9 130 34 76 101 95 77 31 69 104 40 87 107 39 98 106 
Route 4 : 48 55 115 122 44 19 62 129 86 111 21 88 32 99 41 108 
Route 5 : 14 58 81 22 125 89 33 100 
Route 6 : 52 67 134 119 23 90 
Route 7 : 15 82 
Route 8 : 66 133 
Route 9 : 
Route 10 : 
Route 11 : 
Route 12 : 
Route 13 : 
Route 14 : 
Route 15 : 
Route 16 : 
Route 17 : 
Route 18 : 
Route 19 : 
Route 20 : 
Route 21 : 

--------------------------------------------------------------------------------(Solver execution current time: 4.9661030769348145)
[INFO] Starting metaheuristic
--------------------------------------------------------------------------------(Solver execution current time: 4.9683308601379395)
[INFO] AGES EXCLUDED
--------------------------------------------------------------------------------(Solver execution current time: 4.9716575145721436)
[INFO] Starting LNS
--------------------------------------------------------------------------------(Solver execution current time: 5.623567819595337)
[SOLUTION]
LNS
IT: 40
Exec Time: 0.6497149467468262
obj_value: -65; obj_routes: 26951.0
Route 1 : 65 8 132 75 35 17 16 42 83 24 38 91 105 102 50 84 56 18 11 85 25 92 78 109 123 117 
Route 2 : 6 73 36 103 12 79 47 3 70 53 54 121 61 51 26 114 128 27 43 120 7 5 110 57 74 93 118 94 72 60 127 124 
Route 3 : 1 49 29 46 45 30 68 96 113 13 37 116 4 20 80 28 112 71 10 63 2 97 9 130 34 76 101 95 77 31 69 104 40 87 107 39 98 106 
Route 4 : 48 55 115 122 44 19 62 129 86 111 21 88 32 99 41 108 
Route 5 : 14 58 81 22 125 89 33 100 
Route 6 : 52 67 134 119 23 90 
Route 7 : 15 82 
Route 8 : 66 133 
Route 9 : 
Route 10 : 
Route 11 : 
Route 12 : 
Route 13 : 
Route 14 : 
Route 15 : 
Route 16 : 
Route 17 : 
Route 18 : 
Route 19 : 
Route 20 : 
Route 21 : 

--------------------------------------------------------------------------------(Solver execution current time: 5.625247240066528)
[INFO] Starting PartitionMaxRequestsHF
--------------------------------------------------------------------------------(Solver execution current time: 5.6804773807525635)
[SOLUTION]
PartitionMaxRequestsHF
Exec Time: 0.0551762580871582
obj_value: -65; obj_routes: 26951.0
Route 1 : 65 8 132 75 35 17 16 42 83 24 38 91 105 102 50 84 56 18 11 85 25 92 78 109 123 117 
Route 2 : 6 73 36 103 12 79 47 3 70 53 54 121 61 51 26 114 128 27 43 120 7 5 110 57 74 93 118 94 72 60 127 124 
Route 3 : 1 49 29 46 45 30 68 96 113 13 37 116 4 20 80 28 112 71 10 63 2 97 9 130 34 76 101 95 77 31 69 104 40 87 107 39 98 106 
Route 4 : 48 55 115 122 44 19 62 129 86 111 21 88 32 99 41 108 
Route 5 : 14 58 81 22 125 89 33 100 
Route 6 : 52 67 134 119 23 90 
Route 7 : 15 82 
Route 8 : 66 133 
Route 9 : 
Route 10 : 
Route 11 : 
Route 12 : 
Route 13 : 
Route 14 : 
Route 15 : 
Route 16 : 
Route 17 : 
Route 18 : 
Route 19 : 
Route 20 : 
Route 21 : 

--------------------------------------------------------------------------------(Solver execution current time: 5.682126998901367)
[INFO] Starting OriginalPerturbation
--------------------------------------------------------------------------------(Solver execution current time: 12.508239030838013)
[SOLUTION]
Original Perturbation
Exec Time: 6.827377557754517
obj_value: -65; obj_routes: 28572.0
Route 1 : 65 8 132 75 35 17 16 42 83 24 38 91 105 102 50 84 56 18 11 85 25 92 78 109 123 117 
Route 2 : 6 73 36 103 12 79 47 3 70 53 54 121 61 51 26 114 128 27 43 120 5 110 57 93 118 94 72 60 127 124 
Route 3 : 1 49 29 46 45 30 68 96 113 13 37 116 4 20 80 28 112 71 10 63 2 97 9 130 34 76 101 95 77 31 69 104 40 87 107 98 
Route 4 : 48 55 115 122 44 19 62 129 86 111 21 88 39 106 
Route 5 : 14 58 81 22 125 89 33 100 
Route 6 : 52 67 134 119 
Route 7 : 66 133 23 41 90 108 
Route 8 : 15 82 
Route 9 : 7 74 
Route 10 : 32 99 
Route 11 : 
Route 12 : 
Route 13 : 
Route 14 : 
Route 15 : 
Route 16 : 
Route 17 : 
Route 18 : 
Route 19 : 
Route 20 : 
Route 21 : 

--------------------------------------------------------------------------------(Solver execution current time: 12.509997129440308)
[SOLUTION]
SBMath
IT: 1
ITs witout improving: 1
IT time: 7.541667938232422
Time since begin: 7.542417526245117
obj_value: -65; obj_routes: 28572.0
Route 1 : 65 8 132 75 35 17 16 42 83 24 38 91 105 102 50 84 56 18 11 85 25 92 78 109 123 117 
Route 2 : 6 73 36 103 12 79 47 3 70 53 54 121 61 51 26 114 128 27 43 120 5 110 57 93 118 94 72 60 127 124 
Route 3 : 1 49 29 46 45 30 68 96 113 13 37 116 4 20 80 28 112 71 10 63 2 97 9 130 34 76 101 95 77 31 69 104 40 87 107 98 
Route 4 : 48 55 115 122 44 19 62 129 86 111 21 88 39 106 
Route 5 : 14 58 81 22 125 89 33 100 
Route 6 : 52 67 134 119 
Route 7 : 66 133 23 41 90 108 
Route 8 : 15 82 
Route 9 : 7 74 
Route 10 : 32 99 
Route 11 : 
Route 12 : 
Route 13 : 
Route 14 : 
Route 15 : 
Route 16 : 
Route 17 : 
Route 18 : 
Route 19 : 
Route 20 : 
Route 21 : 

--------------------------------------------------------------------------------(Solver execution current time: 12.510221481323242)
[SOLUTION]
SBMath
IT: 1
ITs witout improving: 1
IT time: 7.541667938232422
Time since begin: 7.542417526245117
obj_value: -65; obj_routes: 26951.0
Route 1 : 65 8 132 75 35 17 16 42 83 24 38 91 105 102 50 84 56 18 11 85 25 92 78 109 123 117 
Route 2 : 6 73 36 103 12 79 47 3 70 53 54 121 61 51 26 114 128 27 43 120 7 5 110 57 74 93 118 94 72 60 127 124 
Route 3 : 1 49 29 46 45 30 68 96 113 13 37 116 4 20 80 28 112 71 10 63 2 97 9 130 34 76 101 95 77 31 69 104 40 87 107 39 98 106 
Route 4 : 48 55 115 122 44 19 62 129 86 111 21 88 32 99 41 108 
Route 5 : 14 58 81 22 125 89 33 100 
Route 6 : 52 67 134 119 23 90 
Route 7 : 15 82 
Route 8 : 66 133 
Route 9 : 
Route 10 : 
Route 11 : 
Route 12 : 
Route 13 : 
Route 14 : 
Route 15 : 
Route 16 : 
Route 17 : 
Route 18 : 
Route 19 : 
Route 20 : 
Route 21 : 

--------------------------------------------------------------------------------(Solver execution current time: 12.510430097579956)
[INFO] AGES EXCLUDED
--------------------------------------------------------------------------------(Solver execution current time: 12.51180911064148)
[INFO] Starting LNS
--------------------------------------------------------------------------------(Solver execution current time: 13.164828300476074)
[SOLUTION]
LNS
IT: 40
Exec Time: 0.6512408256530762
obj_value: -65; obj_routes: 28572.0
Route 1 : 65 8 132 75 35 17 16 42 83 24 38 91 105 102 50 84 56 18 11 85 25 92 78 109 123 117 
Route 2 : 6 73 36 103 12 79 47 3 70 53 54 121 61 51 26 114 128 27 43 120 5 110 57 93 118 94 72 60 127 124 
Route 3 : 1 49 29 46 45 30 68 96 113 13 37 116 4 20 80 28 112 71 10 63 2 97 9 130 34 76 101 95 77 31 69 104 40 87 107 98 
Route 4 : 48 55 115 122 44 19 62 129 86 111 21 88 39 106 
Route 5 : 14 58 81 22 125 89 33 100 
Route 6 : 52 67 134 119 
Route 7 : 66 133 23 41 90 108 
Route 8 : 15 82 
Route 9 : 7 74 
Route 10 : 32 99 
Route 11 : 
Route 12 : 
Route 13 : 
Route 14 : 
Route 15 : 
Route 16 : 
Route 17 : 
Route 18 : 
Route 19 : 
Route 20 : 
Route 21 : 

--------------------------------------------------------------------------------(Solver execution current time: 13.167255878448486)
[INFO] Starting PartitionMaxRequestsHF
--------------------------------------------------------------------------------(Solver execution current time: 13.19988465309143)
[SOLUTION]
PartitionMaxRequestsHF
Exec Time: 0.03248476982116699
Improvedobj_value: -65; obj_routes: 27576.0
Route 1 : 65 8 132 75 35 17 16 42 83 24 38 91 105 102 50 84 56 18 11 85 25 92 78 109 123 117 
Route 2 : 6 73 36 103 12 79 47 3 70 53 54 121 61 51 26 114 128 27 43 120 7 5 110 57 74 93 118 94 72 60 127 124 
Route 3 : 14 58 81 22 125 89 33 100 
Route 4 : 15 82 
Route 5 : 1 49 29 46 45 30 68 96 113 13 37 116 4 20 80 28 112 71 10 63 2 97 9 130 34 76 101 95 77 31 69 104 40 87 107 98 
Route 6 : 48 55 115 122 44 19 62 129 86 111 21 88 39 106 
Route 7 : 52 67 134 119 
Route 8 : 66 133 23 41 90 108 
Route 9 : 32 99 
Route 10 : 
Route 11 : 
Route 12 : 
Route 13 : 
Route 14 : 
Route 15 : 
Route 16 : 
Route 17 : 
Route 18 : 
Route 19 : 
Route 20 : 
Route 21 : 

--------------------------------------------------------------------------------(Solver execution current time: 13.202561378479004)
[INFO] Starting OriginalPerturbation
--------------------------------------------------------------------------------(Solver execution current time: 15.608667612075806)
[SOLUTION]
Original Perturbation
Exec Time: 2.4083504676818848
obj_value: -65; obj_routes: 28442.0
Route 1 : 65 8 132 75 35 17 16 42 83 24 38 91 105 102 50 84 56 18 11 85 25 92 78 109 123 117 
Route 2 : 6 73 36 103 12 79 47 3 70 53 54 121 61 51 26 114 128 27 43 120 110 5 57 93 118 94 72 124 
Route 3 : 1 49 29 46 45 30 68 96 113 13 37 116 4 20 80 28 112 71 10 63 2 97 9 130 34 76 101 95 77 31 69 104 40 87 107 98 
Route 4 : 48 55 115 122 44 19 62 129 86 111 21 88 39 106 
Route 5 : 14 58 81 22 125 89 7 74 
Route 6 : 52 67 134 119 
Route 7 : 33 60 23 100 90 127 
Route 8 : 41 108 
Route 9 : 66 133 
Route 10 : 
Route 11 : 15 82 32 99 
Route 12 : 
Route 13 : 
Route 14 : 
Route 15 : 
Route 16 : 
Route 17 : 
Route 18 : 
Route 19 : 
Route 20 : 
Route 21 : 

--------------------------------------------------------------------------------(Solver execution current time: 15.611615419387817)
[SOLUTION]
SBMath
IT: 2
ITs witout improving: 2
IT time: 3.1011579036712646
Time since begin: 10.644022941589355
obj_value: -65; obj_routes: 28442.0
Route 1 : 65 8 132 75 35 17 16 42 83 24 38 91 105 102 50 84 56 18 11 85 25 92 78 109 123 117 
Route 2 : 6 73 36 103 12 79 47 3 70 53 54 121 61 51 26 114 128 27 43 120 110 5 57 93 118 94 72 124 
Route 3 : 1 49 29 46 45 30 68 96 113 13 37 116 4 20 80 28 112 71 10 63 2 97 9 130 34 76 101 95 77 31 69 104 40 87 107 98 
Route 4 : 48 55 115 122 44 19 62 129 86 111 21 88 39 106 
Route 5 : 14 58 81 22 125 89 7 74 
Route 6 : 52 67 134 119 
Route 7 : 33 60 23 100 90 127 
Route 8 : 41 108 
Route 9 : 66 133 
Route 10 : 
Route 11 : 15 82 32 99 
Route 12 : 
Route 13 : 
Route 14 : 
Route 15 : 
Route 16 : 
Route 17 : 
Route 18 : 
Route 19 : 
Route 20 : 
Route 21 : 

--------------------------------------------------------------------------------(Solver execution current time: 15.612192153930664)
[SOLUTION]
SBMath
IT: 2
ITs witout improving: 2
IT time: 3.1011579036712646
Time since begin: 10.644022941589355
obj_value: -65; obj_routes: 26951.0
Route 1 : 65 8 132 75 35 17 16 42 83 24 38 91 105 102 50 84 56 18 11 85 25 92 78 109 123 117 
Route 2 : 6 73 36 103 12 79 47 3 70 53 54 121 61 51 26 114 128 27 43 120 7 5 110 57 74 93 118 94 72 60 127 124 
Route 3 : 1 49 29 46 45 30 68 96 113 13 37 116 4 20 80 28 112 71 10 63 2 97 9 130 34 76 101 95 77 31 69 104 40 87 107 39 98 106 
Route 4 : 48 55 115 122 44 19 62 129 86 111 21 88 32 99 41 108 
Route 5 : 14 58 81 22 125 89 33 100 
Route 6 : 52 67 134 119 23 90 
Route 7 : 15 82 
Route 8 : 66 133 
Route 9 : 
Route 10 : 
Route 11 : 
Route 12 : 
Route 13 : 
Route 14 : 
Route 15 : 
Route 16 : 
Route 17 : 
Route 18 : 
Route 19 : 
Route 20 : 
Route 21 : 

--------------------------------------------------------------------------------(Solver execution current time: 15.612462997436523)
[INFO] AGES EXCLUDED
--------------------------------------------------------------------------------(Solver execution current time: 15.613933801651001)
[INFO] Starting LNS
--------------------------------------------------------------------------------(Solver execution current time: 16.32098960876465)
[SOLUTION]
LNS
IT: 40
Exec Time: 0.7051215171813965
obj_value: -65; obj_routes: 28442.0
Route 1 : 65 8 132 75 35 17 16 42 83 24 38 91 105 102 50 84 56 18 11 85 25 92 78 109 123 117 
Route 2 : 6 73 36 103 12 79 47 3 70 53 54 121 61 51 26 114 128 27 43 120 110 5 57 93 118 94 72 124 
Route 3 : 1 49 29 46 45 30 68 96 113 13 37 116 4 20 80 28 112 71 10 63 2 97 9 130 34 76 101 95 77 31 69 104 40 87 107 98 
Route 4 : 48 55 115 122 44 19 62 129 86 111 21 88 39 106 
Route 5 : 14 58 81 22 125 89 7 74 
Route 6 : 52 67 134 119 
Route 7 : 33 60 23 100 90 127 
Route 8 : 41 108 
Route 9 : 66 133 
Route 10 : 
Route 11 : 15 82 32 99 
Route 12 : 
Route 13 : 
Route 14 : 
Route 15 : 
Route 16 : 
Route 17 : 
Route 18 : 
Route 19 : 
Route 20 : 
Route 21 : 

--------------------------------------------------------------------------------(Solver execution current time: 16.32310676574707)
[INFO] Starting PartitionMaxRequestsHF
--------------------------------------------------------------------------------(Solver execution current time: 16.351614952087402)
[SOLUTION]
PartitionMaxRequestsHF
Exec Time: 0.02844548225402832
Improvedobj_value: -65; obj_routes: 26951.0
Route 1 : 65 8 132 75 35 17 16 42 83 24 38 91 105 102 50 84 56 18 11 85 25 92 78 109 123 117 
Route 2 : 6 73 36 103 12 79 47 3 70 53 54 121 61 51 26 114 128 27 43 120 7 5 110 57 74 93 118 94 72 60 127 124 
Route 3 : 1 49 29 46 45 30 68 96 113 13 37 116 4 20 80 28 112 71 10 63 2 97 9 130 34 76 101 95 77 31 69 104 40 87 107 39 98 106 
Route 4 : 48 55 115 122 44 19 62 129 86 111 21 88 32 99 41 108 
Route 5 : 14 58 81 22 125 89 33 100 
Route 6 : 52 67 134 119 23 90 
Route 7 : 15 82 
Route 8 : 66 133 
Route 9 : 
Route 10 : 
Route 11 : 
Route 12 : 
Route 13 : 
Route 14 : 
Route 15 : 
Route 16 : 
Route 17 : 
Route 18 : 
Route 19 : 
Route 20 : 
Route 21 : 

--------------------------------------------------------------------------------(Solver execution current time: 16.353602647781372)
[INFO] Starting OriginalPerturbation
--------------------------------------------------------------------------------(Solver execution current time: 18.240299463272095)
[SOLUTION]
Original Perturbation
Exec Time: 1.888068437576294
obj_value: -65; obj_routes: 28712.0
Route 1 : 65 8 132 75 35 17 16 42 83 24 38 91 105 102 50 84 56 18 11 85 25 92 78 109 123 117 
Route 2 : 6 73 36 103 12 79 47 3 70 53 54 121 61 51 26 114 128 27 43 120 110 57 93 118 94 124 
Route 3 : 1 49 29 46 45 30 68 96 113 13 37 116 4 20 80 28 112 71 10 63 2 97 9 130 34 76 101 95 77 69 104 40 87 107 
Route 4 : 48 55 115 122 44 19 62 129 86 111 21 88 5 39 72 106 
Route 5 : 14 58 81 22 125 89 7 74 
Route 6 : 52 67 134 119 
Route 7 : 31 98 60 32 127 99 
Route 8 : 23 33 90 100 
Route 9 : 66 133 
Route 10 : 41 108 
Route 11 : 15 82 
Route 12 : 
Route 13 : 
Route 14 : 
Route 15 : 
Route 16 : 
Route 17 : 
Route 18 : 
Route 19 : 
Route 20 : 
Route 21 : 

--------------------------------------------------------------------------------(Solver execution current time: 18.24192237854004)
[SOLUTION]
SBMath
IT: 3
ITs witout improving: 3
IT time: 2.6294689178466797
Time since begin: 13.274343013763428
obj_value: -65; obj_routes: 28712.0
Route 1 : 65 8 132 75 35 17 16 42 83 24 38 91 105 102 50 84 56 18 11 85 25 92 78 109 123 117 
Route 2 : 6 73 36 103 12 79 47 3 70 53 54 121 61 51 26 114 128 27 43 120 110 57 93 118 94 124 
Route 3 : 1 49 29 46 45 30 68 96 113 13 37 116 4 20 80 28 112 71 10 63 2 97 9 130 34 76 101 95 77 69 104 40 87 107 
Route 4 : 48 55 115 122 44 19 62 129 86 111 21 88 5 39 72 106 
Route 5 : 14 58 81 22 125 89 7 74 
Route 6 : 52 67 134 119 
Route 7 : 31 98 60 32 127 99 
Route 8 : 23 33 90 100 
Route 9 : 66 133 
Route 10 : 41 108 
Route 11 : 15 82 
Route 12 : 
Route 13 : 
Route 14 : 
Route 15 : 
Route 16 : 
Route 17 : 
Route 18 : 
Route 19 : 
Route 20 : 
Route 21 : 

--------------------------------------------------------------------------------(Solver execution current time: 18.242146492004395)
[SOLUTION]
SBMath
IT: 3
ITs witout improving: 3
IT time: 2.6294689178466797
Time since begin: 13.274343013763428
obj_value: -65; obj_routes: 26951.0
Route 1 : 65 8 132 75 35 17 16 42 83 24 38 91 105 102 50 84 56 18 11 85 25 92 78 109 123 117 
Route 2 : 6 73 36 103 12 79 47 3 70 53 54 121 61 51 26 114 128 27 43 120 7 5 110 57 74 93 118 94 72 60 127 124 
Route 3 : 1 49 29 46 45 30 68 96 113 13 37 116 4 20 80 28 112 71 10 63 2 97 9 130 34 76 101 95 77 31 69 104 40 87 107 39 98 106 
Route 4 : 48 55 115 122 44 19 62 129 86 111 21 88 32 99 41 108 
Route 5 : 14 58 81 22 125 89 33 100 
Route 6 : 52 67 134 119 23 90 
Route 7 : 15 82 
Route 8 : 66 133 
Route 9 : 
Route 10 : 
Route 11 : 
Route 12 : 
Route 13 : 
Route 14 : 
Route 15 : 
Route 16 : 
Route 17 : 
Route 18 : 
Route 19 : 
Route 20 : 
Route 21 : 

--------------------------------------------------------------------------------(Solver execution current time: 18.242359399795532)
[INFO] AGES EXCLUDED
--------------------------------------------------------------------------------(Solver execution current time: 18.24372673034668)
[INFO] Starting LNS
--------------------------------------------------------------------------------(Solver execution current time: 18.85584306716919)
[SOLUTION]
LNS
IT: 40
Exec Time: 0.6102819442749023
obj_value: -65; obj_routes: 28712.0
Route 1 : 65 8 132 75 35 17 16 42 83 24 38 91 105 102 50 84 56 18 11 85 25 92 78 109 123 117 
Route 2 : 6 73 36 103 12 79 47 3 70 53 54 121 61 51 26 114 128 27 43 120 110 57 93 118 94 124 
Route 3 : 1 49 29 46 45 30 68 96 113 13 37 116 4 20 80 28 112 71 10 63 2 97 9 130 34 76 101 95 77 69 104 40 87 107 
Route 4 : 48 55 115 122 44 19 62 129 86 111 21 88 5 39 72 106 
Route 5 : 14 58 81 22 125 89 7 74 
Route 6 : 52 67 134 119 
Route 7 : 31 98 60 32 127 99 
Route 8 : 23 33 90 100 
Route 9 : 66 133 
Route 10 : 41 108 
Route 11 : 15 82 
Route 12 : 
Route 13 : 
Route 14 : 
Route 15 : 
Route 16 : 
Route 17 : 
Route 18 : 
Route 19 : 
Route 20 : 
Route 21 : 

--------------------------------------------------------------------------------(Solver execution current time: 18.858163356781006)
[INFO] Starting PartitionMaxRequestsHF
--------------------------------------------------------------------------------(Solver execution current time: 18.883387565612793)
[SOLUTION]
PartitionMaxRequestsHF
Exec Time: 0.025164127349853516
Improvedobj_value: -65; obj_routes: 26951.0
Route 1 : 65 8 132 75 35 17 16 42 83 24 38 91 105 102 50 84 56 18 11 85 25 92 78 109 123 117 
Route 2 : 6 73 36 103 12 79 47 3 70 53 54 121 61 51 26 114 128 27 43 120 7 5 110 57 74 93 118 94 72 60 127 124 
Route 3 : 1 49 29 46 45 30 68 96 113 13 37 116 4 20 80 28 112 71 10 63 2 97 9 130 34 76 101 95 77 31 69 104 40 87 107 39 98 106 
Route 4 : 48 55 115 122 44 19 62 129 86 111 21 88 32 99 41 108 
Route 5 : 14 58 81 22 125 89 33 100 
Route 6 : 52 67 134 119 23 90 
Route 7 : 15 82 
Route 8 : 66 133 
Route 9 : 
Route 10 : 
Route 11 : 
Route 12 : 
Route 13 : 
Route 14 : 
Route 15 : 
Route 16 : 
Route 17 : 
Route 18 : 
Route 19 : 
Route 20 : 
Route 21 : 

--------------------------------------------------------------------------------(Solver execution current time: 18.88511824607849)
[INFO] Starting OriginalPerturbation
--------------------------------------------------------------------------------(Solver execution current time: 21.534899711608887)
[SOLUTION]
Original Perturbation
Exec Time: 2.65109920501709
obj_value: -65; obj_routes: 28768.0
Route 1 : 65 8 132 75 35 17 16 42 83 24 38 91 105 102 50 84 56 18 11 85 25 92 78 109 123 117 
Route 2 : 6 73 36 103 12 79 47 3 70 53 54 121 61 51 26 114 128 27 43 120 110 5 57 93 118 94 40 107 124 72 
Route 3 : 1 49 29 46 45 30 68 96 113 13 37 116 4 20 80 28 112 71 10 63 2 97 9 130 34 76 101 95 77 69 104 60 87 127 
Route 4 : 48 55 115 122 44 19 62 129 86 111 21 88 39 106 
Route 5 : 14 58 81 22 125 89 31 7 98 74 
Route 6 : 52 67 134 119 
Route 7 : 15 82 32 41 99 108 
Route 8 : 23 90 
Route 9 : 
Route 10 : 
Route 11 : 66 133 
Route 12 : 33 100 
Route 13 : 
Route 14 : 
Route 15 : 
Route 16 : 
Route 17 : 
Route 18 : 
Route 19 : 
Route 20 : 
Route 21 : 

--------------------------------------------------------------------------------(Solver execution current time: 21.536546230316162)
[SOLUTION]
SBMath
IT: 4
ITs witout improving: 4
IT time: 3.2941906452178955
Time since begin: 16.56896662712097
obj_value: -65; obj_routes: 28768.0
Route 1 : 65 8 132 75 35 17 16 42 83 24 38 91 105 102 50 84 56 18 11 85 25 92 78 109 123 117 
Route 2 : 6 73 36 103 12 79 47 3 70 53 54 121 61 51 26 114 128 27 43 120 110 5 57 93 118 94 40 107 124 72 
Route 3 : 1 49 29 46 45 30 68 96 113 13 37 116 4 20 80 28 112 71 10 63 2 97 9 130 34 76 101 95 77 69 104 60 87 127 
Route 4 : 48 55 115 122 44 19 62 129 86 111 21 88 39 106 
Route 5 : 14 58 81 22 125 89 31 7 98 74 
Route 6 : 52 67 134 119 
Route 7 : 15 82 32 41 99 108 
Route 8 : 23 90 
Route 9 : 
Route 10 : 
Route 11 : 66 133 
Route 12 : 33 100 
Route 13 : 
Route 14 : 
Route 15 : 
Route 16 : 
Route 17 : 
Route 18 : 
Route 19 : 
Route 20 : 
Route 21 : 

--------------------------------------------------------------------------------(Solver execution current time: 21.53676962852478)
[SOLUTION]
SBMath
IT: 4
ITs witout improving: 4
IT time: 3.2941906452178955
Time since begin: 16.56896662712097
obj_value: -65; obj_routes: 26951.0
Route 1 : 65 8 132 75 35 17 16 42 83 24 38 91 105 102 50 84 56 18 11 85 25 92 78 109 123 117 
Route 2 : 6 73 36 103 12 79 47 3 70 53 54 121 61 51 26 114 128 27 43 120 7 5 110 57 74 93 118 94 72 60 127 124 
Route 3 : 1 49 29 46 45 30 68 96 113 13 37 116 4 20 80 28 112 71 10 63 2 97 9 130 34 76 101 95 77 31 69 104 40 87 107 39 98 106 
Route 4 : 48 55 115 122 44 19 62 129 86 111 21 88 32 99 41 108 
Route 5 : 14 58 81 22 125 89 33 100 
Route 6 : 52 67 134 119 23 90 
Route 7 : 15 82 
Route 8 : 66 133 
Route 9 : 
Route 10 : 
Route 11 : 
Route 12 : 
Route 13 : 
Route 14 : 
Route 15 : 
Route 16 : 
Route 17 : 
Route 18 : 
Route 19 : 
Route 20 : 
Route 21 : 

--------------------------------------------------------------------------------(Solver execution current time: 21.536970138549805)
[INFO] AGES EXCLUDED
--------------------------------------------------------------------------------(Solver execution current time: 21.538341999053955)
[INFO] Starting LNS
--------------------------------------------------------------------------------(Solver execution current time: 22.008639335632324)
[SOLUTION]
LNS
IT: 40
Exec Time: 0.4685342311859131
obj_value: -65; obj_routes: 28768.0
Route 1 : 65 8 132 75 35 17 16 42 83 24 38 91 105 102 50 84 56 18 11 85 25 92 78 109 123 117 
Route 2 : 6 73 36 103 12 79 47 3 70 53 54 121 61 51 26 114 128 27 43 120 110 5 57 93 118 94 40 107 124 72 
Route 3 : 1 49 29 46 45 30 68 96 113 13 37 116 4 20 80 28 112 71 10 63 2 97 9 130 34 76 101 95 77 69 104 60 87 127 
Route 4 : 48 55 115 122 44 19 62 129 86 111 21 88 39 106 
Route 5 : 14 58 81 22 125 89 31 7 98 74 
Route 6 : 52 67 134 119 
Route 7 : 15 82 32 41 99 108 
Route 8 : 23 90 
Route 9 : 
Route 10 : 
Route 11 : 66 133 
Route 12 : 33 100 
Route 13 : 
Route 14 : 
Route 15 : 
Route 16 : 
Route 17 : 
Route 18 : 
Route 19 : 
Route 20 : 
Route 21 : 

--------------------------------------------------------------------------------(Solver execution current time: 22.010945558547974)
[INFO] Starting PartitionMaxRequestsHF
--------------------------------------------------------------------------------(Solver execution current time: 22.036202669143677)
[SOLUTION]
PartitionMaxRequestsHF
Exec Time: 0.02519965171813965
Improvedobj_value: -65; obj_routes: 28366.0
Route 1 : 65 8 132 75 35 17 16 42 83 24 38 91 105 102 50 84 56 18 11 85 25 92 78 109 123 117 
Route 2 : 52 67 134 119 23 90 
Route 3 : 66 133 
Route 4 : 48 55 115 122 44 19 62 129 86 111 21 88 39 106 
Route 5 : 6 73 36 103 12 79 47 3 70 53 54 121 61 51 26 114 128 27 43 120 110 5 57 93 118 94 40 107 124 72 
Route 6 : 1 49 29 46 45 30 68 96 113 13 37 116 4 20 80 28 112 71 10 63 2 97 9 130 34 76 101 95 77 69 104 60 87 127 
Route 7 : 14 58 81 22 125 89 31 7 98 74 
Route 8 : 15 82 32 41 99 108 
Route 9 : 33 100 
Route 10 : 
Route 11 : 
Route 12 : 
Route 13 : 
Route 14 : 
Route 15 : 
Route 16 : 
Route 17 : 
Route 18 : 
Route 19 : 
Route 20 : 
Route 21 : 

--------------------------------------------------------------------------------(Solver execution current time: 22.038018226623535)
[INFO] Starting OriginalPerturbation
--------------------------------------------------------------------------------(Solver execution current time: 25.033671617507935)
[SOLUTION]
Original Perturbation
Exec Time: 2.9970545768737793
obj_value: -65; obj_routes: 27631.0
Route 1 : 65 8 132 75 35 17 16 42 83 24 38 91 105 102 50 84 56 18 11 85 25 92 78 109 123 117 
Route 2 : 6 73 36 103 12 79 47 3 70 53 54 121 61 51 26 114 128 27 43 120 110 5 57 93 118 94 124 40 107 72 
Route 3 : 1 49 29 46 45 30 68 96 113 13 37 116 4 20 80 28 112 71 10 63 2 97 9 130 34 76 101 95 77 69 104 87 
Route 4 : 48 55 115 122 44 19 62 129 86 111 21 88 39 106 
Route 5 : 14 58 81 22 125 89 
Route 6 : 52 67 134 119 
Route 7 : 31 33 32 100 7 99 41 98 108 74 
Route 8 : 15 82 
Route 9 : 66 133 
Route 10 : 
Route 11 : 60 23 127 90 
Route 12 : 
Route 13 : 
Route 14 : 
Route 15 : 
Route 16 : 
Route 17 : 
Route 18 : 
Route 19 : 
Route 20 : 
Route 21 : 

--------------------------------------------------------------------------------(Solver execution current time: 25.03524136543274)
[SOLUTION]
SBMath
IT: 5
ITs witout improving: 5
IT time: 3.4982738494873047
Time since begin: 20.06766152381897
obj_value: -65; obj_routes: 27631.0
Route 1 : 65 8 132 75 35 17 16 42 83 24 38 91 105 102 50 84 56 18 11 85 25 92 78 109 123 117 
Route 2 : 6 73 36 103 12 79 47 3 70 53 54 121 61 51 26 114 128 27 43 120 110 5 57 93 118 94 124 40 107 72 
Route 3 : 1 49 29 46 45 30 68 96 113 13 37 116 4 20 80 28 112 71 10 63 2 97 9 130 34 76 101 95 77 69 104 87 
Route 4 : 48 55 115 122 44 19 62 129 86 111 21 88 39 106 
Route 5 : 14 58 81 22 125 89 
Route 6 : 52 67 134 119 
Route 7 : 31 33 32 100 7 99 41 98 108 74 
Route 8 : 15 82 
Route 9 : 66 133 
Route 10 : 
Route 11 : 60 23 127 90 
Route 12 : 
Route 13 : 
Route 14 : 
Route 15 : 
Route 16 : 
Route 17 : 
Route 18 : 
Route 19 : 
Route 20 : 
Route 21 : 

--------------------------------------------------------------------------------(Solver execution current time: 25.035466194152832)
[SOLUTION]
SBMath
IT: 5
ITs witout improving: 5
IT time: 3.4982738494873047
Time since begin: 20.06766152381897
obj_value: -65; obj_routes: 26951.0
Route 1 : 65 8 132 75 35 17 16 42 83 24 38 91 105 102 50 84 56 18 11 85 25 92 78 109 123 117 
Route 2 : 6 73 36 103 12 79 47 3 70 53 54 121 61 51 26 114 128 27 43 120 7 5 110 57 74 93 118 94 72 60 127 124 
Route 3 : 1 49 29 46 45 30 68 96 113 13 37 116 4 20 80 28 112 71 10 63 2 97 9 130 34 76 101 95 77 31 69 104 40 87 107 39 98 106 
Route 4 : 48 55 115 122 44 19 62 129 86 111 21 88 32 99 41 108 
Route 5 : 14 58 81 22 125 89 33 100 
Route 6 : 52 67 134 119 23 90 
Route 7 : 15 82 
Route 8 : 66 133 
Route 9 : 
Route 10 : 
Route 11 : 
Route 12 : 
Route 13 : 
Route 14 : 
Route 15 : 
Route 16 : 
Route 17 : 
Route 18 : 
Route 19 : 
Route 20 : 
Route 21 : 

--------------------------------------------------------------------------------(Solver execution current time: 25.035675287246704)
[INFO] AGES EXCLUDED
--------------------------------------------------------------------------------(Solver execution current time: 25.037036180496216)
[INFO] Starting LNS
--------------------------------------------------------------------------------(Solver execution current time: 25.507524728775024)
[SOLUTION]
LNS
IT: 40
Exec Time: 0.4687039852142334
obj_value: -65; obj_routes: 27631.0
Route 1 : 65 8 132 75 35 17 16 42 83 24 38 91 105 102 50 84 56 18 11 85 25 92 78 109 123 117 
Route 2 : 6 73 36 103 12 79 47 3 70 53 54 121 61 51 26 114 128 27 43 120 110 5 57 93 118 94 124 40 107 72 
Route 3 : 1 49 29 46 45 30 68 96 113 13 37 116 4 20 80 28 112 71 10 63 2 97 9 130 34 76 101 95 77 69 104 87 
Route 4 : 48 55 115 122 44 19 62 129 86 111 21 88 39 106 
Route 5 : 14 58 81 22 125 89 
Route 6 : 52 67 134 119 
Route 7 : 31 33 32 100 7 99 41 98 108 74 
Route 8 : 15 82 
Route 9 : 66 133 
Route 10 : 
Route 11 : 60 23 127 90 
Route 12 : 
Route 13 : 
Route 14 : 
Route 15 : 
Route 16 : 
Route 17 : 
Route 18 : 
Route 19 : 
Route 20 : 
Route 21 : 

--------------------------------------------------------------------------------(Solver execution current time: 25.509621143341064)
[INFO] Starting PartitionMaxRequestsHF
--------------------------------------------------------------------------------(Solver execution current time: 25.5368332862854)
[SOLUTION]
PartitionMaxRequestsHF
Exec Time: 0.027156352996826172
obj_value: -65; obj_routes: 28014.0
Route 1 : 65 8 132 75 35 17 16 42 83 24 38 91 105 102 50 84 56 18 11 85 25 92 78 109 123 117 
Route 2 : 1 49 29 46 45 30 68 96 113 13 37 116 4 20 80 28 112 71 10 63 2 97 9 130 34 76 101 95 77 31 69 104 40 87 107 39 98 106 
Route 3 : 48 55 115 122 44 19 62 129 86 111 21 88 32 99 41 108 
Route 4 : 52 67 134 119 23 90 
Route 5 : 15 82 
Route 6 : 66 133 
Route 7 : 6 73 36 103 12 79 47 3 70 53 54 121 61 51 26 114 128 27 43 120 5 110 57 93 118 94 72 60 127 124 
Route 8 : 14 58 81 22 125 89 7 74 
Route 9 : 33 100 
Route 10 : 
Route 11 : 
Route 12 : 
Route 13 : 
Route 14 : 
Route 15 : 
Route 16 : 
Route 17 : 
Route 18 : 
Route 19 : 
Route 20 : 
Route 21 : 

--------------------------------------------------------------------------------(Solver execution current time: 25.538538217544556)
[INFO] Starting OriginalPerturbation
--------------------------------------------------------------------------------(Solver execution current time: 27.972361087799072)
[SOLUTION]
Original Perturbation
Exec Time: 2.4351465702056885
obj_value: -65; obj_routes: 29021.0
Route 1 : 65 8 132 75 35 17 16 42 83 24 38 91 105 102 50 84 56 18 11 85 25 92 78 109 123 117 
Route 2 : 6 73 36 103 12 79 47 3 70 53 54 121 61 51 26 114 128 27 43 120 110 57 93 118 94 124 
Route 3 : 1 49 29 46 45 30 68 96 113 13 37 116 4 20 80 28 112 71 10 63 2 97 9 130 34 76 101 95 77 69 104 87 39 106 
Route 4 : 48 55 115 122 44 19 62 129 86 111 21 88 5 72 40 107 
Route 5 : 14 58 81 22 125 89 
Route 6 : 52 67 134 119 
Route 7 : 15 82 31 41 98 108 60 127 
Route 8 : 33 100 
Route 9 : 66 133 
Route 10 : 
Route 11 : 32 23 99 90 
Route 12 : 7 74 
Route 13 : 
Route 14 : 
Route 15 : 
Route 16 : 
Route 17 : 
Route 18 : 
Route 19 : 
Route 20 : 
Route 21 : 

--------------------------------------------------------------------------------(Solver execution current time: 27.973958492279053)
[SOLUTION]
SBMath
IT: 6
ITs witout improving: 6
IT time: 2.9382858276367188
Time since begin: 23.006378650665283
obj_value: -65; obj_routes: 29021.0
Route 1 : 65 8 132 75 35 17 16 42 83 24 38 91 105 102 50 84 56 18 11 85 25 92 78 109 123 117 
Route 2 : 6 73 36 103 12 79 47 3 70 53 54 121 61 51 26 114 128 27 43 120 110 57 93 118 94 124 
Route 3 : 1 49 29 46 45 30 68 96 113 13 37 116 4 20 80 28 112 71 10 63 2 97 9 130 34 76 101 95 77 69 104 87 39 106 
Route 4 : 48 55 115 122 44 19 62 129 86 111 21 88 5 72 40 107 
Route 5 : 14 58 81 22 125 89 
Route 6 : 52 67 134 119 
Route 7 : 15 82 31 41 98 108 60 127 
Route 8 : 33 100 
Route 9 : 66 133 
Route 10 : 
Route 11 : 32 23 99 90 
Route 12 : 7 74 
Route 13 : 
Route 14 : 
Route 15 : 
Route 16 : 
Route 17 : 
Route 18 : 
Route 19 : 
Route 20 : 
Route 21 : 

--------------------------------------------------------------------------------(Solver execution current time: 27.974184036254883)
[SOLUTION]
SBMath
IT: 6
ITs witout improving: 6
IT time: 2.9382858276367188
Time since begin: 23.006378650665283
obj_value: -65; obj_routes: 26951.0
Route 1 : 65 8 132 75 35 17 16 42 83 24 38 91 105 102 50 84 56 18 11 85 25 92 78 109 123 117 
Route 2 : 6 73 36 103 12 79 47 3 70 53 54 121 61 51 26 114 128 27 43 120 7 5 110 57 74 93 118 94 72 60 127 124 
Route 3 : 1 49 29 46 45 30 68 96 113 13 37 116 4 20 80 28 112 71 10 63 2 97 9 130 34 76 101 95 77 31 69 104 40 87 107 39 98 106 
Route 4 : 48 55 115 122 44 19 62 129 86 111 21 88 32 99 41 108 
Route 5 : 14 58 81 22 125 89 33 100 
Route 6 : 52 67 134 119 23 90 
Route 7 : 15 82 
Route 8 : 66 133 
Route 9 : 
Route 10 : 
Route 11 : 
Route 12 : 
Route 13 : 
Route 14 : 
Route 15 : 
Route 16 : 
Route 17 : 
Route 18 : 
Route 19 : 
Route 20 : 
Route 21 : 

--------------------------------------------------------------------------------(Solver execution current time: 27.974389791488647)
[INFO] AGES EXCLUDED
--------------------------------------------------------------------------------(Solver execution current time: 27.97648549079895)
[INFO] Starting LNS
--------------------------------------------------------------------------------(Solver execution current time: 28.417484521865845)
[SOLUTION]
LNS
IT: 40
Exec Time: 0.4388444423675537
obj_value: -65; obj_routes: 29021.0
Route 1 : 65 8 132 75 35 17 16 42 83 24 38 91 105 102 50 84 56 18 11 85 25 92 78 109 123 117 
Route 2 : 6 73 36 103 12 79 47 3 70 53 54 121 61 51 26 114 128 27 43 120 110 57 93 118 94 124 
Route 3 : 1 49 29 46 45 30 68 96 113 13 37 116 4 20 80 28 112 71 10 63 2 97 9 130 34 76 101 95 77 69 104 87 39 106 
Route 4 : 48 55 115 122 44 19 62 129 86 111 21 88 5 72 40 107 
Route 5 : 14 58 81 22 125 89 
Route 6 : 52 67 134 119 
Route 7 : 15 82 31 41 98 108 60 127 
Route 8 : 33 100 
Route 9 : 66 133 
Route 10 : 
Route 11 : 32 23 99 90 
Route 12 : 7 74 
Route 13 : 
Route 14 : 
Route 15 : 
Route 16 : 
Route 17 : 
Route 18 : 
Route 19 : 
Route 20 : 
Route 21 : 

--------------------------------------------------------------------------------(Solver execution current time: 28.420572519302368)
[INFO] Starting PartitionMaxRequestsHF
--------------------------------------------------------------------------------(Solver execution current time: 28.478183031082153)
[SOLUTION]
PartitionMaxRequestsHF
Exec Time: 0.05747485160827637
Improvedobj_value: -65; obj_routes: 28752.0
Route 1 : 65 8 132 75 35 17 16 42 83 24 38 91 105 102 50 84 56 18 11 85 25 92 78 109 123 117 
Route 2 : 14 58 81 22 125 89 33 100 
Route 3 : 52 67 134 119 23 90 
Route 4 : 15 82 
Route 5 : 66 133 
Route 6 : 7 74 
Route 7 : 41 108 
Route 8 : 6 73 36 103 12 79 47 3 70 53 54 121 61 51 26 114 128 27 43 120 110 57 93 118 94 124 
Route 9 : 31 98 60 32 127 99 
Route 10 : 1 49 29 46 45 30 68 96 113 13 37 116 4 20 80 28 112 71 10 63 2 97 9 130 34 76 101 95 77 69 104 87 39 106 
Route 11 : 48 55 115 122 44 19 62 129 86 111 21 88 5 72 40 107 
Route 12 : 
Route 13 : 
Route 14 : 
Route 15 : 
Route 16 : 
Route 17 : 
Route 18 : 
Route 19 : 
Route 20 : 
Route 21 : 

--------------------------------------------------------------------------------(Solver execution current time: 28.480245113372803)
[INFO] Starting OriginalPerturbation
--------------------------------------------------------------------------------(Solver execution current time: 30.01171612739563)
[WARNING] Time Limit Exceeded
--------------------------------------------------------------------------------(Solver execution current time: 30.011882066726685)
[WARNING] Searching current best solution.
--------------------------------------------------------------------------------(Solver execution current time: 30.017665147781372)
[INFO] Algorithm execution time : 30.01844549179077
--------------------------------------------------------------------------------(Solver execution current time: 30.02035880088806)
[SOLUTION]
Final Solution Verification
====================================
Constraints verification: 
Homogenous Capacity Constraint OK
Time Windwos Constraint OK
Pickup and Delivery Constraint OK
Fixed Requests Constraint OK
Limited Fleet Constraint OK
Heterogeneous Fleet Constraint OK
====================================
Obj Func verification: 
SOLUTION COST OK
------------------------------------
ROUTES TOTAL COST OK
------------------------------------
REQUESTS TOTAL COST OK
------------------------------------
OBJECTIVE VALUE: -65
ROUTES VALUE: 26951.0
------------------------------------

Best Solution: 
obj_value: -65; obj_routes: 26951.0
Route 1 : 65 8 132 75 35 17 16 42 83 24 38 91 105 102 50 84 56 18 11 85 25 92 78 109 123 117 
Route 2 : 6 73 36 103 12 79 47 3 70 53 54 121 61 51 26 114 128 27 43 120 7 5 110 57 74 93 118 94 72 60 127 124 
Route 3 : 1 49 29 46 45 30 68 96 113 13 37 116 4 20 80 28 112 71 10 63 2 97 9 130 34 76 101 95 77 31 69 104 40 87 107 39 98 106 
Route 4 : 48 55 115 122 44 19 62 129 86 111 21 88 32 99 41 108 
Route 5 : 14 58 81 22 125 89 33 100 
Route 6 : 52 67 134 119 23 90 
Route 7 : 15 82 
Route 8 : 66 133 
Route 9 : 
Route 10 : 
Route 11 : 
Route 12 : 
Route 13 : 
Route 14 : 
Route 15 : 
Route 16 : 
Route 17 : 
Route 18 : 
Route 19 : 
Route 20 : 
Route 21 : 

--------------------------------------------------------------------------------